(set-logic ALL)
(set-option :produce-models true)

;; helper / uninterpreted declarations for predicates used by encoding
(declare-fun in (String (Array String Bool)) Bool)
(declare-fun add_to_set (String String) Bool)
(declare-fun not_empty (String) Bool)

(declare-fun authenticated (String) Bool)
(declare-fun token_present (String) Bool)
(declare-fun cart_contains (String String) Bool)
(declare-fun order_recorded (String String) Bool)
(declare-fun result_is_restaurant_list () Bool)
(declare-fun result_is_menu () Bool)
(declare-fun result_is_cart () Bool)
(declare-fun review_added () Bool)

;; Variable declarations (String type)
(declare-fun v1 () String)
(declare-fun v2 () String)
(declare-fun v3 () String)
(declare-fun v4 () String)
(declare-fun v5 () String)
(declare-fun v6 () String)
(declare-fun v7 () String)
(declare-fun v8 () String)
(declare-fun v9 () String)
(declare-fun v10 () String)
(declare-fun v11 () String)
(declare-fun v12 () String)
(declare-fun v13 () String)
(declare-fun v14 () String)
(declare-fun v15 () String)
(declare-fun v16 () String)
(declare-fun v17 () String)

;; Map declarations (Array String String/Bool)
; Map: T
(declare-const Dom_T (Array String Bool))
(declare-const Val_T (Array String String))

; Map: U
(declare-const Dom_U (Array String Bool))
(declare-const Val_U (Array String String))

;; Domain arrays left unconstrained initially

(assert (! (= v1 "A") :named c1))
(assert (! (= v2 "B") :named c2))
(assert (! (in v1) :named c3))
(assert (! (authenticated v1) :named c4))
(assert (! (and (token_present v3)) :named c5))
(assert (! (result_is_restaurant_list) :named c6))
(assert (! (= v4 "B") :named c7))
(assert (! (and (token_present v5)) :named c8))
(assert (! (result_is_menu) :named c9))
(assert (! (= v6 "D") :named c10))
(assert (! (= v7 "B") :named c11))
(assert (! (= v8 "C") :named c12))
(assert (! (and (token_present v9)) :named c13))
(assert (! (cart_contains v9 v7) :named c14))
(assert (! (= v10 "C") :named c15))
(assert (! (and (token_present v11)) :named c16))
(assert (! (cart_not_contains v11 v10) :named c17))
(assert (! (= v12 "E") :named c18))
(assert (! (= v13 "C") :named c19))
(assert (! (= v14 "D") :named c20))
(assert (! (and (token_present v15)) :named c21))
(assert (! (cart_contains v15 v13) :named c22))
(assert (! (and (token_present v16)) :named c23))
(assert (! (order_recorded v17 v16) :named c24))

(check-sat)
(get-model)
